$HEA
$TIM "Mon Jan 12 08:29:52 2026"
$APP "BD-Next"
$REM
8.0
$EOR
$VERSION 8000
$END

$REM
----- Number of Layers -----
$EOR
$BRD_LAY 2

$REM
----- Define Net Property -----
$EOR
$DEF_NAT netPriority
$DEF_NAT maxDelay
$DEF_NAT netMaxLeng
$DEF_NAT netMinLeng
$DEF_NAT maxImpedance
$DEF_NAT minImpedance
$DEF_NAT pinpairSameLeng
$DEF_NAT pinpairSameLengTor
$DEF_NAT midDriven
$DEF_NAT TBranch
$DEF_NAT loop
$DEF_NAT innerNetParallelWidth
$DEF_NAT innerNetParallelLeng
$DEF_NAT viaCountForFanout
$DEF_NAT testPad
$DEF_NAT daisy
$DEF_NAT shield
$DEF_NAT shieldSname
$DEF_NAT shieldGap
$DEF_NAT shieldTraceRuleStk
$DEF_NAT maxStub
$DEF_NAT period
$DEF_NAT duty
$DEF_NAT riseTime
$DEF_NAT voltAmplitude
$DEF_NAT maxXtalk
$DEF_NAT netXtalkType
$DEF_NAT traceRuleStack
$DEF_NAT colorId
$DEF_NAT voltage
$DEF_NAT highpeakvtg
$DEF_NAT lowpeakvtg
$DEF_NAT phase
$DEF_NAT sameNetDesignRuleStack
$DEF_NAT boardDesignRuleStack
$DEF_NAT __className
$DEF_NAT numberOfTestPad
$DEF_NAT pairNetName
$DEF_NAT pinPair
$DEF_NAT netComment
$DEF_NAT ePotentialGrp
$DEF_NAT gndProhibit
$DEF_NAT maxWireCapacitance
$DEF_NAT layoutGuide
$DEF_NAT ICX_CLASS
$DEF_NAT crsTkIntensity
$DEF_NAT powerNetGroup
$DEF_NAT net_layer
$DEF_NAT netMaxParallelLeng
$DEF_NAT vDiffTable
$DEF_NAT __clearanceClassName
$DEF_NAT pinpairMaxLeng
$DEF_NAT pinpairMinLeng
$DEF_NAT maxViaCount
$DEF_NAT topComment

$REM
----- Define Enet Property -----
$EOR
$DEF_EAT pinpairMaxLeng
$DEF_EAT pinpairMinLeng
$DEF_EAT pinpairSameLengTor
$DEF_EAT maxStub
$DEF_EAT pinpairMaxDelay
$DEF_EAT pinpairMinDelay
$DEF_EAT pinpairSameDelayTol
$DEF_EAT maxImpedance
$DEF_EAT minImpedance
$DEF_EAT maxXtalk
$DEF_EAT maxEnetOvershoot
$DEF_EAT shieldTraceRuleStk
$DEF_EAT voltage
$DEF_EAT highpeakvtg
$DEF_EAT lowpeakvtg
$DEF_EAT phase
$DEF_EAT duty
$DEF_EAT traceRuleStack
$DEF_EAT colorId
$DEF_EAT sameNetDesignRuleStack
$DEF_EAT boardDesignRuleStack
$DEF_EAT __className
$DEF_EAT lengthSkewChgWidth
$DEF_EAT lengthSkewBranch
$DEF_EAT lengthSkewChgLayer
$DEF_EAT stimulus
$DEF_EAT pinPair
$DEF_EAT vDiffTable
$DEF_EAT __clearanceClassName
$DEF_EAT __topologyTemplateName
$DEF_EAT netMaxLeng
$DEF_EAT netMinLeng
$DEF_EAT maxViaCount
$DEF_EAT shield
$DEF_EAT shieldSname
$DEF_EAT shieldGap
$DEF_EAT period
$DEF_EAT riseTime
$DEF_EAT voltAmplitude
$DEF_EAT netMaxParallelLeng
$DEF_EAT netXtalkType
$DEF_EAT crsTkIntensity
$DEF_EAT gndProhibit
$DEF_EAT maxWireCapacitance
$DEF_EAT layoutGuide
$DEF_EAT timeSkewChgWidth
$DEF_EAT timeSkewBranch
$DEF_EAT timeSkewChgLayer

$REM
----- Define Pinpair Property -----
$EOR
$DEF_PPA maxDelay
$DEF_PPA netMaxLeng
$DEF_PPA netMinLeng
$DEF_PPA maxImpedance
$DEF_PPA traceRuleStack
$DEF_PPA minPathWidth
$DEF_PPA pinpairMaxDelay
$DEF_PPA pinpairMinDelay
$DEF_PPA minImpedance

$REM
----- Define Differential Pair Property -----
$EOR
$DEF_DAT pinpairMaxLeng
$DEF_DAT pinpairMinLeng
$DEF_DAT pinpairSameLengTor
$DEF_DAT pinpairMaxDelay
$DEF_DAT pinpairMinDelay
$DEF_DAT pinpairSameDelayTol
$DEF_DAT maxDiffpairXtalk
$DEF_DAT maxEnetOvershoot
$DEF_DAT maxDiffPairImpedance
$DEF_DAT minDiffPairImpedance
$DEF_DAT colorId
$DEF_DAT diffPairDesignRuleStack
$DEF_DAT sameNetDesignRuleStack
$DEF_DAT boardDesignRuleStack
$DEF_DAT __className
$DEF_DAT __clearanceClassName
$DEF_DAT __topologyTemplateName
$DEF_DAT pnLengSkewChgWidth
$DEF_DAT pnLengSkewBranch
$DEF_DAT pnLengSkewChgLayer
$DEF_DAT pnTimeSkewChgWidth
$DEF_DAT pnTimeSkewBranch
$DEF_DAT pnTimeSkewChgLayer

$REM
----- Define Net Class Property -----
$EOR
$DEF_NCA netMaxLeng
$DEF_NCA netMinLeng
$DEF_NCA pinpairSameLengTor
$DEF_NCA viaCountForFanout
$DEF_NCA innerNetParallelWidth
$DEF_NCA innerNetParallelLeng
$DEF_NCA maxImpedance
$DEF_NCA minImpedance
$DEF_NCA shield
$DEF_NCA shieldSname
$DEF_NCA shieldGap
$DEF_NCA shieldTraceRuleStk
$DEF_NCA voltage
$DEF_NCA highpeakvtg
$DEF_NCA lowpeakvtg
$DEF_NCA phase
$DEF_NCA duty
$DEF_NCA period
$DEF_NCA riseTime
$DEF_NCA voltAmplitude
$DEF_NCA netMaxParallelLeng
$DEF_NCA netXtalkType
$DEF_NCA crsTkIntensity
$DEF_NCA gndProhibit
$DEF_NCA maxWireCapacitance
$DEF_NCA colorId
$DEF_NCA traceRuleStack
$DEF_NCA maxStub
$DEF_NCA maxDelay
$DEF_NCA maxXtalk
$DEF_NCA sameNetDesignRuleStack
$DEF_NCA boardDesignRuleStack
$DEF_NCA __clearanceClassName
$DEF_NCA pinpairMaxLeng
$DEF_NCA pinpairMinLeng
$DEF_NCA maxViaCount
$DEF_NCA net_layer
$DEF_NCA powerNetGroup
$DEF_NCA vDiffTable

$REM
----- Define Enet Class Property -----
$EOR
$DEF_ECA netMaxLeng
$DEF_ECA netMinLeng
$DEF_ECA pinpairSameLengTor
$DEF_ECA maxStub
$DEF_ECA pinpairMaxDelay
$DEF_ECA pinpairMinDelay
$DEF_ECA pinpairSameDelayTol
$DEF_ECA maxImpedance
$DEF_ECA minImpedance
$DEF_ECA maxXtalk
$DEF_ECA maxEnetOvershoot
$DEF_ECA shieldTraceRuleStk
$DEF_ECA voltage
$DEF_ECA highpeakvtg
$DEF_ECA lowpeakvtg
$DEF_ECA phase
$DEF_ECA duty
$DEF_ECA traceRuleStack
$DEF_ECA colorId
$DEF_ECA sameNetDesignRuleStack
$DEF_ECA boardDesignRuleStack
$DEF_ECA pinpairMaxLeng
$DEF_ECA pinpairMinLeng
$DEF_ECA lengthSkewChgWidth
$DEF_ECA lengthSkewBranch
$DEF_ECA lengthSkewChgLayer
$DEF_ECA stimulus
$DEF_ECA __clearanceClassName
$DEF_ECA maxViaCount
$DEF_ECA shield
$DEF_ECA shieldSname
$DEF_ECA shieldGap
$DEF_ECA period
$DEF_ECA riseTime
$DEF_ECA voltAmplitude
$DEF_ECA maxWireCapacitance
$DEF_ECA netMaxParallelLeng
$DEF_ECA netXtalkType
$DEF_ECA crsTkIntensity
$DEF_ECA gndProhibit
$DEF_ECA vDiffTable
$DEF_ECA timeSkewChgWidth
$DEF_ECA timeSkewBranch
$DEF_ECA timeSkewChgLayer

$REM
----- Define Differential Pair Class Property -----
$EOR
$DEF_DCA pinpairMaxLeng
$DEF_DCA pinpairMinLeng
$DEF_DCA pinpairMaxDelay
$DEF_DCA pinpairMinDelay
$DEF_DCA maxDiffPairImpedance
$DEF_DCA minDiffPairImpedance
$DEF_DCA colorId
$DEF_DCA diffPairDesignRuleStack
$DEF_DCA sameNetDesignRuleStack
$DEF_DCA boardDesignRuleStack
$DEF_DCA pnLengSkewChgWidth
$DEF_DCA pnLengSkewBranch
$DEF_DCA pnLengSkewChgLayer
$DEF_DCA __clearanceClassName
$DEF_DCA pinpairSameLengTor
$DEF_DCA pinpairSameDelayTol
$DEF_DCA pnTimeSkewChgWidth
$DEF_DCA pnTimeSkewBranch
$DEF_DCA pnTimeSkewChgLayer

$REM
----- Define Net Group Property -----
$EOR
$DEF_NGA xtalkNoCheck
$DEF_NGA shield
$DEF_NGA shieldSname
$DEF_NGA shieldGap

$REM
----- Define Pin Property -----
$EOR
$DEF_PAT tpreference
$DEF_PAT pinOrder
$DEF_PAT driverKind
$DEF_PAT io
$DEF_PAT ICX_SERIES
$DEF_PAT ICX_PORT_TYPE
$DEF_PAT enetSeries
$DEF_PAT placementGroup
$DEF_PAT xtcJudgeModel
$DEF_PAT xtcNoiseModel
$DEF_PAT xtcCheckFlag
$DEF_PAT xtcSparam
$DEF_PAT xtcSparamGroup
$DEF_PAT xtcSparamPortNo
$DEF_PAT edxWaveform
$DEF_PAT powerPinGroup
$DEF_PAT decoupleDist
$DEF_PAT pinComment

$REM
----- Define Component Property -----
$EOR
$DEF_CAT compGroup
$DEF_CAT partNumber
$DEF_CAT packageInfo
$DEF_CAT decoupleDist
$DEF_CAT ICX_PART_MODEL
$DEF_CAT value
$DEF_CAT compComment
$DEF_CAT pa_phase
$DEF_CAT pa_lock
$DEF_CAT ra_lock
$DEF_CAT isvGate
$DEF_CAT isvGateID
$DEF_CAT enetNonSeries
$DEF_CAT emcPart
$DEF_CAT compType
$DEF_CAT chkPowerWire
$DEF_CAT placementGroup
$DEF_CAT placementKind
$DEF_CAT groundFill
$DEF_CAT esdPart
$DEF_CAT layoutGuide
$DEF_CAT xtcRLC
$DEF_CAT edxCir
$DEF_CAT elec_type
$DEF_CAT hs_model
$DEF_CAT hs_device
$DEF_CAT hs_vendor
$DEF_CAT hs_tech
$DEF_CAT esdDistance
$DEF_CAT decoupleBalance

$REM
----- Define Package Info Property -----
$EOR
$DEF_PIA placementLayer
$DEF_PIA placementAngle

$REM
----- Define Skew Group Property -----
$EOR
$DEF_PGA pinpairMaxLeng
$DEF_PGA pinpairMinLeng
$DEF_PGA pinpairSameLengTor
$DEF_PGA maxRelativeLeng
$DEF_PGA minRelativeLeng
$DEF_PGA pinpairMaxDelay
$DEF_PGA pinpairMinDelay
$DEF_PGA pinpairSameDelayTol
$DEF_PGA maxRelativeDelay
$DEF_PGA minRelativeDelay
$DEF_PGA lengthSkewChgWidth
$DEF_PGA lengthSkewBranch
$DEF_PGA lengthSkewChgLayer
$DEF_PGA timeSkewChgWidth
$DEF_PGA timeSkewBranch
$DEF_PGA timeSkewChgLayer

$REM
----- Define Track width stack -----
$EOR
$BRD_TWS_DEF 0.15mm
$BRD_TWS_DEF 0.2mm
$BRD_TWS_DEF 0.4mm
$BRD_TWS_DEF 50ohm
$BRD_TWS_DEF 100ohm_diff_pair
$BRD_TWS_DEF 0.1mm
$BRD_TWS_DEF 0.3mm
$BRD_TWS_DEF 0.5mm
$BRD_TWS_DEF 1mm
$BRD_TWS_DEF 1.5mm
$BRD_TWS_DEF 2mm
$BRD_TWS_DEF 3mm
$BRD_TWS_DEF 4mm
$BRD_TWS_DEF 5mm
$BRD_TWS_DEF 90ohm_diff_pair

$REM
----- Track width stack Value -----
$EOR
$BRD_TWS_VAL 0.15mm 1 0.15 0.1 10
$BRD_TWS_VAL 0.15mm 2 0.15 0.1 10
$BRD_TWS_VAL 0.2mm 1 0.2 0.1 10
$BRD_TWS_VAL 0.2mm 2 0.2 0.1 10
$BRD_TWS_VAL 0.4mm 1 0.4 0.1 10
$BRD_TWS_VAL 0.4mm 2 0.4 0.1 10
$BRD_TWS_VAL 50ohm 1 10 10 10
$BRD_TWS_VAL 50ohm 2 10 10 10
$BRD_TWS_VAL 100ohm_diff_pair 1 10 10 10
$BRD_TWS_VAL 100ohm_diff_pair 2 10 10 10
$BRD_TWS_VAL 0.1mm 1 0.1 0.1 10
$BRD_TWS_VAL 0.1mm 2 0.1 0.1 10
$BRD_TWS_VAL 0.3mm 1 0.3 0.1 10
$BRD_TWS_VAL 0.3mm 2 0.3 0.1 10
$BRD_TWS_VAL 0.5mm 1 0.5 0.1 10
$BRD_TWS_VAL 0.5mm 2 0.5 0.1 10
$BRD_TWS_VAL 1mm 1 1 0.1 10
$BRD_TWS_VAL 1mm 2 1 0.1 10
$BRD_TWS_VAL 1.5mm 1 1.5 0.1 10
$BRD_TWS_VAL 1.5mm 2 1.5 0.1 10
$BRD_TWS_VAL 2mm 1 2 0.1 10
$BRD_TWS_VAL 2mm 2 2 0.1 10
$BRD_TWS_VAL 3mm 1 3 0.1 10
$BRD_TWS_VAL 3mm 2 3 0.1 10
$BRD_TWS_VAL 4mm 1 4 0.1 10
$BRD_TWS_VAL 4mm 2 4 0.1 10
$BRD_TWS_VAL 5mm 1 5 0.1 10
$BRD_TWS_VAL 5mm 2 5 0.1 10
$BRD_TWS_VAL 90ohm_diff_pair 1 10 10 10
$BRD_TWS_VAL 90ohm_diff_pair 2 10 10 10

$REM
----- Define Differential pair rule stack -----
$EOR

$REM
----- Differential pair rule stack Value -----
$EOR

$REM
----- Define Design rule unit -----
$EOR
$BRD_DRU_DEF 0.2_SAMENET
$BRD_DRU_DEF 0.1_SAMENET
$BRD_DRU_DEF 0.15_SAMENET
$BRD_DRU_DEF 0.15
$BRD_DRU_DEF 0.1
$BRD_DRU_DEF 0.2

$REM
----- Design rule unit Value -----
$EOR
$BRD_DRU_VAL 0.2_SAMENET WIRE WIRE 0.15
$BRD_DRU_VAL 0.2_SAMENET WIRE THROUGHHOLEVIA 0.15
$BRD_DRU_VAL 0.2_SAMENET WIRE INTERSTITIALVIA 0.15
$BRD_DRU_VAL 0.2_SAMENET WIRE NOPAD 0.4
$BRD_DRU_VAL 0.2_SAMENET WIRE THROUGHHOLEPIN 0.1
$BRD_DRU_VAL 0.2_SAMENET WIRE SMDPIN 0.1
$BRD_DRU_VAL 0.2_SAMENET THROUGHHOLEVIA THROUGHHOLEVIA 0.15
$BRD_DRU_VAL 0.2_SAMENET THROUGHHOLEVIA INTERSTITIALVIA 0.15
$BRD_DRU_VAL 0.2_SAMENET THROUGHHOLEVIA NOPAD 0.4
$BRD_DRU_VAL 0.2_SAMENET THROUGHHOLEPIN THROUGHHOLEVIA 0.15
$BRD_DRU_VAL 0.2_SAMENET SMDPIN THROUGHHOLEVIA 0.15
$BRD_DRU_VAL 0.2_SAMENET INTERSTITIALVIA INTERSTITIALVIA 0.15
$BRD_DRU_VAL 0.2_SAMENET INTERSTITIALVIA NOPAD 0.4
$BRD_DRU_VAL 0.2_SAMENET THROUGHHOLEPIN INTERSTITIALVIA 0.15
$BRD_DRU_VAL 0.2_SAMENET SMDPIN INTERSTITIALVIA 0.15
$BRD_DRU_VAL 0.2_SAMENET NOPAD NOPAD 0.4
$BRD_DRU_VAL 0.2_SAMENET THROUGHHOLEPIN NOPAD 0.4
$BRD_DRU_VAL 0.2_SAMENET SMDPIN NOPAD 0.4
$BRD_DRU_VAL 0.2_SAMENET THROUGHHOLEPIN THROUGHHOLEPIN 0.15
$BRD_DRU_VAL 0.2_SAMENET THROUGHHOLEPIN SMDPIN 0.1
$BRD_DRU_VAL 0.2_SAMENET SMDPIN SMDPIN 0.15
$BRD_DRU_VAL 0.2_SAMENET SMDPIN INNERCOMP 0.15
$BRD_DRU_VAL 0.2_SAMENET THROUGHHOLEPIN INNERCOMP 0.2
$BRD_DRU_VAL 0.2_SAMENET SMDPIN TURN 0
$BRD_DRU_VAL 0.2_SAMENET THROUGHHOLEPIN TURN 0
$BRD_DRU_VAL 0.2_SAMENET WIRE BUILDUPVIA 0.15
$BRD_DRU_VAL 0.2_SAMENET THROUGHHOLEVIA BUILDUPVIA 0.15
$BRD_DRU_VAL 0.2_SAMENET INTERSTITIALVIA BUILDUPVIA 0.15
$BRD_DRU_VAL 0.2_SAMENET NOPAD BUILDUPVIA 0.15
$BRD_DRU_VAL 0.2_SAMENET THROUGHHOLEPIN BUILDUPVIA 0.15
$BRD_DRU_VAL 0.2_SAMENET SMDPIN BUILDUPVIA 0.15
$BRD_DRU_VAL 0.2_SAMENET BUILDUPVIA BUILDUPVIA 0.15
$BRD_DRU_VAL 0.2_SAMENET WIRE SURFACE 0.15
$BRD_DRU_VAL 0.2_SAMENET SURFACE THROUGHHOLEVIA 0.15
$BRD_DRU_VAL 0.2_SAMENET SURFACE INTERSTITIALVIA 0.15
$BRD_DRU_VAL 0.2_SAMENET SURFACE NOPAD 0.4
$BRD_DRU_VAL 0.2_SAMENET SURFACE THROUGHHOLEPIN 0.15
$BRD_DRU_VAL 0.2_SAMENET SURFACE SMDPIN 0.15
$BRD_DRU_VAL 0.2_SAMENET SURFACE BUILDUPVIA 0.15
$BRD_DRU_VAL 0.2_SAMENET SURFACE SURFACE 0.15
$BRD_DRU_VAL 0.2_SAMENET WIRE INTERSTITIALNOLANDVIA 0.4
$BRD_DRU_VAL 0.2_SAMENET THROUGHHOLEVIA INTERSTITIALNOLANDVIA 0.4
$BRD_DRU_VAL 0.2_SAMENET INTERSTITIALVIA INTERSTITIALNOLANDVIA 0.4
$BRD_DRU_VAL 0.2_SAMENET NOPAD INTERSTITIALNOLANDVIA 0.4
$BRD_DRU_VAL 0.2_SAMENET THROUGHHOLEPIN INTERSTITIALNOLANDVIA 0.4
$BRD_DRU_VAL 0.2_SAMENET SMDPIN INTERSTITIALNOLANDVIA 0.4
$BRD_DRU_VAL 0.2_SAMENET INTERSTITIALNOLANDVIA BUILDUPVIA 0.15
$BRD_DRU_VAL 0.2_SAMENET SURFACE INTERSTITIALNOLANDVIA 0.4
$BRD_DRU_VAL 0.2_SAMENET INTERSTITIALNOLANDVIA INTERSTITIALNOLANDVIA 0.4
$BRD_DRU_VAL 0.2_SAMENET WIRE BUILDUPSKIPSTACKVIA 0.15
$BRD_DRU_VAL 0.2_SAMENET THROUGHHOLEVIA BUILDUPSKIPSTACKVIA 0.15
$BRD_DRU_VAL 0.2_SAMENET INTERSTITIALVIA BUILDUPSKIPSTACKVIA 0.15
$BRD_DRU_VAL 0.2_SAMENET NOPAD BUILDUPSKIPSTACKVIA 0.15
$BRD_DRU_VAL 0.2_SAMENET THROUGHHOLEPIN BUILDUPSKIPSTACKVIA 0.15
$BRD_DRU_VAL 0.2_SAMENET SMDPIN BUILDUPSKIPSTACKVIA 0.15
$BRD_DRU_VAL 0.2_SAMENET BUILDUPVIA BUILDUPSKIPSTACKVIA 0.15
$BRD_DRU_VAL 0.2_SAMENET SURFACE BUILDUPSKIPSTACKVIA 0.15
$BRD_DRU_VAL 0.2_SAMENET INTERSTITIALNOLANDVIA BUILDUPSKIPSTACKVIA 0.15
$BRD_DRU_VAL 0.2_SAMENET BUILDUPSKIPSTACKVIA BUILDUPSKIPSTACKVIA 0.15
$BRD_DRU_VAL 0.2_SAMENET WIRE BUILDUPLANDLESSVIA 0.15
$BRD_DRU_VAL 0.2_SAMENET THROUGHHOLEVIA BUILDUPLANDLESSVIA 0.15
$BRD_DRU_VAL 0.2_SAMENET INTERSTITIALVIA BUILDUPLANDLESSVIA 0.15
$BRD_DRU_VAL 0.2_SAMENET NOPAD BUILDUPLANDLESSVIA 0.15
$BRD_DRU_VAL 0.2_SAMENET THROUGHHOLEPIN BUILDUPLANDLESSVIA 0.15
$BRD_DRU_VAL 0.2_SAMENET SMDPIN BUILDUPLANDLESSVIA 0.15
$BRD_DRU_VAL 0.2_SAMENET BUILDUPVIA BUILDUPLANDLESSVIA 0.15
$BRD_DRU_VAL 0.2_SAMENET SURFACE BUILDUPLANDLESSVIA 0.15
$BRD_DRU_VAL 0.2_SAMENET INTERSTITIALNOLANDVIA BUILDUPLANDLESSVIA 0.15
$BRD_DRU_VAL 0.2_SAMENET BUILDUPSKIPSTACKVIA BUILDUPLANDLESSVIA 0.15
$BRD_DRU_VAL 0.2_SAMENET BUILDUPLANDLESSVIA BUILDUPLANDLESSVIA 0.15
$BRD_DRU_VAL 0.2_SAMENET WIRE VIAPASSINGCORE 0.15
$BRD_DRU_VAL 0.2_SAMENET THROUGHHOLEVIA VIAPASSINGCORE 0.15
$BRD_DRU_VAL 0.2_SAMENET INTERSTITIALVIA VIAPASSINGCORE 0.15
$BRD_DRU_VAL 0.2_SAMENET NOPAD VIAPASSINGCORE 0.4
$BRD_DRU_VAL 0.2_SAMENET THROUGHHOLEPIN VIAPASSINGCORE 0.15
$BRD_DRU_VAL 0.2_SAMENET SMDPIN VIAPASSINGCORE 0.15
$BRD_DRU_VAL 0.2_SAMENET BUILDUPVIA VIAPASSINGCORE 0.15
$BRD_DRU_VAL 0.2_SAMENET SURFACE VIAPASSINGCORE 0.15
$BRD_DRU_VAL 0.2_SAMENET INTERSTITIALNOLANDVIA VIAPASSINGCORE 0.4
$BRD_DRU_VAL 0.2_SAMENET BUILDUPSKIPSTACKVIA VIAPASSINGCORE 0.15
$BRD_DRU_VAL 0.2_SAMENET BUILDUPLANDLESSVIA VIAPASSINGCORE 0.15
$BRD_DRU_VAL 0.2_SAMENET VIAPASSINGCORE VIAPASSINGCORE 0.15
$BRD_DRU_VAL 0.2_SAMENET WIRE VIAINCORE 0.15
$BRD_DRU_VAL 0.2_SAMENET THROUGHHOLEVIA VIAINCORE 0.15
$BRD_DRU_VAL 0.2_SAMENET INTERSTITIALVIA VIAINCORE 0.15
$BRD_DRU_VAL 0.2_SAMENET NOPAD VIAINCORE 0.4
$BRD_DRU_VAL 0.2_SAMENET THROUGHHOLEPIN VIAINCORE 0.15
$BRD_DRU_VAL 0.2_SAMENET SMDPIN VIAINCORE 0.15
$BRD_DRU_VAL 0.2_SAMENET BUILDUPVIA VIAINCORE 0.15
$BRD_DRU_VAL 0.2_SAMENET SURFACE VIAINCORE 0.15
$BRD_DRU_VAL 0.2_SAMENET INTERSTITIALNOLANDVIA VIAINCORE 0.4
$BRD_DRU_VAL 0.2_SAMENET BUILDUPSKIPSTACKVIA VIAINCORE 0.15
$BRD_DRU_VAL 0.2_SAMENET BUILDUPLANDLESSVIA VIAINCORE 0.15
$BRD_DRU_VAL 0.2_SAMENET VIAPASSINGCORE VIAINCORE 0.15
$BRD_DRU_VAL 0.2_SAMENET VIAINCORE VIAINCORE 0.15
$BRD_DRU_VAL 0.2_SAMENET WIRE NOLANDVIAPASSINGCORE 0.4
$BRD_DRU_VAL 0.2_SAMENET THROUGHHOLEVIA NOLANDVIAPASSINGCORE 0.4
$BRD_DRU_VAL 0.2_SAMENET INTERSTITIALVIA NOLANDVIAPASSINGCORE 0.4
$BRD_DRU_VAL 0.2_SAMENET NOPAD NOLANDVIAPASSINGCORE 0.4
$BRD_DRU_VAL 0.2_SAMENET THROUGHHOLEPIN NOLANDVIAPASSINGCORE 0.4
$BRD_DRU_VAL 0.2_SAMENET SMDPIN NOLANDVIAPASSINGCORE 0.4
$BRD_DRU_VAL 0.2_SAMENET BUILDUPVIA NOLANDVIAPASSINGCORE 0.15
$BRD_DRU_VAL 0.2_SAMENET SURFACE NOLANDVIAPASSINGCORE 0.4
$BRD_DRU_VAL 0.2_SAMENET INTERSTITIALNOLANDVIA NOLANDVIAPASSINGCORE 0.4
$BRD_DRU_VAL 0.2_SAMENET BUILDUPSKIPSTACKVIA NOLANDVIAPASSINGCORE 0.15
$BRD_DRU_VAL 0.2_SAMENET BUILDUPLANDLESSVIA NOLANDVIAPASSINGCORE 0.15
$BRD_DRU_VAL 0.2_SAMENET VIAPASSINGCORE NOLANDVIAPASSINGCORE 0.4
$BRD_DRU_VAL 0.2_SAMENET VIAINCORE NOLANDVIAPASSINGCORE 0.4
$BRD_DRU_VAL 0.2_SAMENET NOLANDVIAPASSINGCORE NOLANDVIAPASSINGCORE 0.4
$BRD_DRU_VAL 0.2_SAMENET WIRE NOLANDVIAINCORE 0.4
$BRD_DRU_VAL 0.2_SAMENET THROUGHHOLEVIA NOLANDVIAINCORE 0.4
$BRD_DRU_VAL 0.2_SAMENET INTERSTITIALVIA NOLANDVIAINCORE 0.4
$BRD_DRU_VAL 0.2_SAMENET NOPAD NOLANDVIAINCORE 0.4
$BRD_DRU_VAL 0.2_SAMENET THROUGHHOLEPIN NOLANDVIAINCORE 0.4
$BRD_DRU_VAL 0.2_SAMENET SMDPIN NOLANDVIAINCORE 0.4
$BRD_DRU_VAL 0.2_SAMENET BUILDUPVIA NOLANDVIAINCORE 0.15
$BRD_DRU_VAL 0.2_SAMENET SURFACE NOLANDVIAINCORE 0.4
$BRD_DRU_VAL 0.2_SAMENET INTERSTITIALNOLANDVIA NOLANDVIAINCORE 0.4
$BRD_DRU_VAL 0.2_SAMENET BUILDUPSKIPSTACKVIA NOLANDVIAINCORE 0.15
$BRD_DRU_VAL 0.2_SAMENET BUILDUPLANDLESSVIA NOLANDVIAINCORE 0.15
$BRD_DRU_VAL 0.2_SAMENET VIAPASSINGCORE NOLANDVIAINCORE 0.4
$BRD_DRU_VAL 0.2_SAMENET VIAINCORE NOLANDVIAINCORE 0.4
$BRD_DRU_VAL 0.2_SAMENET NOLANDVIAPASSINGCORE NOLANDVIAINCORE 0.4
$BRD_DRU_VAL 0.2_SAMENET NOLANDVIAINCORE NOLANDVIAINCORE 0.4
$BRD_DRU_VAL 0.1_SAMENET WIRE WIRE 0.1
$BRD_DRU_VAL 0.1_SAMENET WIRE THROUGHHOLEVIA 0.15
$BRD_DRU_VAL 0.1_SAMENET WIRE INTERSTITIALVIA 0.15
$BRD_DRU_VAL 0.1_SAMENET WIRE NOPAD 0.225
$BRD_DRU_VAL 0.1_SAMENET WIRE THROUGHHOLEPIN 0.1
$BRD_DRU_VAL 0.1_SAMENET WIRE SMDPIN 0.1
$BRD_DRU_VAL 0.1_SAMENET THROUGHHOLEVIA THROUGHHOLEVIA 0.15
$BRD_DRU_VAL 0.1_SAMENET THROUGHHOLEVIA INTERSTITIALVIA 0.15
$BRD_DRU_VAL 0.1_SAMENET THROUGHHOLEVIA NOPAD 0.225
$BRD_DRU_VAL 0.1_SAMENET THROUGHHOLEPIN THROUGHHOLEVIA 0.15
$BRD_DRU_VAL 0.1_SAMENET SMDPIN THROUGHHOLEVIA 0.1
$BRD_DRU_VAL 0.1_SAMENET INTERSTITIALVIA INTERSTITIALVIA 0.15
$BRD_DRU_VAL 0.1_SAMENET INTERSTITIALVIA NOPAD 0.225
$BRD_DRU_VAL 0.1_SAMENET THROUGHHOLEPIN INTERSTITIALVIA 0.15
$BRD_DRU_VAL 0.1_SAMENET SMDPIN INTERSTITIALVIA 0.15
$BRD_DRU_VAL 0.1_SAMENET NOPAD NOPAD 0.225
$BRD_DRU_VAL 0.1_SAMENET THROUGHHOLEPIN NOPAD 0.225
$BRD_DRU_VAL 0.1_SAMENET SMDPIN NOPAD 0.225
$BRD_DRU_VAL 0.1_SAMENET THROUGHHOLEPIN THROUGHHOLEPIN 0.15
$BRD_DRU_VAL 0.1_SAMENET THROUGHHOLEPIN SMDPIN 0.1
$BRD_DRU_VAL 0.1_SAMENET SMDPIN SMDPIN 0.1
$BRD_DRU_VAL 0.1_SAMENET SMDPIN INNERCOMP 0.1
$BRD_DRU_VAL 0.1_SAMENET THROUGHHOLEPIN INNERCOMP 0.15
$BRD_DRU_VAL 0.1_SAMENET SMDPIN TURN 0
$BRD_DRU_VAL 0.1_SAMENET THROUGHHOLEPIN TURN 0
$BRD_DRU_VAL 0.1_SAMENET WIRE BUILDUPVIA 0.15
$BRD_DRU_VAL 0.1_SAMENET THROUGHHOLEVIA BUILDUPVIA 0.15
$BRD_DRU_VAL 0.1_SAMENET INTERSTITIALVIA BUILDUPVIA 0.15
$BRD_DRU_VAL 0.1_SAMENET NOPAD BUILDUPVIA 0.15
$BRD_DRU_VAL 0.1_SAMENET THROUGHHOLEPIN BUILDUPVIA 0.15
$BRD_DRU_VAL 0.1_SAMENET SMDPIN BUILDUPVIA 0.15
$BRD_DRU_VAL 0.1_SAMENET BUILDUPVIA BUILDUPVIA 0.15
$BRD_DRU_VAL 0.1_SAMENET WIRE SURFACE 0.15
$BRD_DRU_VAL 0.1_SAMENET SURFACE THROUGHHOLEVIA 0.15
$BRD_DRU_VAL 0.1_SAMENET SURFACE INTERSTITIALVIA 0.15
$BRD_DRU_VAL 0.1_SAMENET SURFACE NOPAD 0.225
$BRD_DRU_VAL 0.1_SAMENET SURFACE THROUGHHOLEPIN 0.15
$BRD_DRU_VAL 0.1_SAMENET SURFACE SMDPIN 0.15
$BRD_DRU_VAL 0.1_SAMENET SURFACE BUILDUPVIA 0.15
$BRD_DRU_VAL 0.1_SAMENET SURFACE SURFACE 0.15
$BRD_DRU_VAL 0.1_SAMENET WIRE INTERSTITIALNOLANDVIA 0.225
$BRD_DRU_VAL 0.1_SAMENET THROUGHHOLEVIA INTERSTITIALNOLANDVIA 0.225
$BRD_DRU_VAL 0.1_SAMENET INTERSTITIALVIA INTERSTITIALNOLANDVIA 0.225
$BRD_DRU_VAL 0.1_SAMENET NOPAD INTERSTITIALNOLANDVIA 0.225
$BRD_DRU_VAL 0.1_SAMENET THROUGHHOLEPIN INTERSTITIALNOLANDVIA 0.225
$BRD_DRU_VAL 0.1_SAMENET SMDPIN INTERSTITIALNOLANDVIA 0.225
$BRD_DRU_VAL 0.1_SAMENET INTERSTITIALNOLANDVIA BUILDUPVIA 0.15
$BRD_DRU_VAL 0.1_SAMENET SURFACE INTERSTITIALNOLANDVIA 0.225
$BRD_DRU_VAL 0.1_SAMENET INTERSTITIALNOLANDVIA INTERSTITIALNOLANDVIA 0.225
$BRD_DRU_VAL 0.1_SAMENET WIRE BUILDUPSKIPSTACKVIA 0.15
$BRD_DRU_VAL 0.1_SAMENET THROUGHHOLEVIA BUILDUPSKIPSTACKVIA 0.15
$BRD_DRU_VAL 0.1_SAMENET INTERSTITIALVIA BUILDUPSKIPSTACKVIA 0.15
$BRD_DRU_VAL 0.1_SAMENET NOPAD BUILDUPSKIPSTACKVIA 0.15
$BRD_DRU_VAL 0.1_SAMENET THROUGHHOLEPIN BUILDUPSKIPSTACKVIA 0.15
$BRD_DRU_VAL 0.1_SAMENET SMDPIN BUILDUPSKIPSTACKVIA 0.15
$BRD_DRU_VAL 0.1_SAMENET BUILDUPVIA BUILDUPSKIPSTACKVIA 0.15
$BRD_DRU_VAL 0.1_SAMENET SURFACE BUILDUPSKIPSTACKVIA 0.15
$BRD_DRU_VAL 0.1_SAMENET INTERSTITIALNOLANDVIA BUILDUPSKIPSTACKVIA 0.15
$BRD_DRU_VAL 0.1_SAMENET BUILDUPSKIPSTACKVIA BUILDUPSKIPSTACKVIA 0.15
$BRD_DRU_VAL 0.1_SAMENET WIRE BUILDUPLANDLESSVIA 0.15
$BRD_DRU_VAL 0.1_SAMENET THROUGHHOLEVIA BUILDUPLANDLESSVIA 0.15
$BRD_DRU_VAL 0.1_SAMENET INTERSTITIALVIA BUILDUPLANDLESSVIA 0.15
$BRD_DRU_VAL 0.1_SAMENET NOPAD BUILDUPLANDLESSVIA 0.15
$BRD_DRU_VAL 0.1_SAMENET THROUGHHOLEPIN BUILDUPLANDLESSVIA 0.15
$BRD_DRU_VAL 0.1_SAMENET SMDPIN BUILDUPLANDLESSVIA 0.15
$BRD_DRU_VAL 0.1_SAMENET BUILDUPVIA BUILDUPLANDLESSVIA 0.15
$BRD_DRU_VAL 0.1_SAMENET SURFACE BUILDUPLANDLESSVIA 0.15
$BRD_DRU_VAL 0.1_SAMENET INTERSTITIALNOLANDVIA BUILDUPLANDLESSVIA 0.15
$BRD_DRU_VAL 0.1_SAMENET BUILDUPSKIPSTACKVIA BUILDUPLANDLESSVIA 0.15
$BRD_DRU_VAL 0.1_SAMENET BUILDUPLANDLESSVIA BUILDUPLANDLESSVIA 0.15
$BRD_DRU_VAL 0.1_SAMENET WIRE VIAPASSINGCORE 0.15
$BRD_DRU_VAL 0.1_SAMENET THROUGHHOLEVIA VIAPASSINGCORE 0.15
$BRD_DRU_VAL 0.1_SAMENET INTERSTITIALVIA VIAPASSINGCORE 0.15
$BRD_DRU_VAL 0.1_SAMENET NOPAD VIAPASSINGCORE 0.225
$BRD_DRU_VAL 0.1_SAMENET THROUGHHOLEPIN VIAPASSINGCORE 0.15
$BRD_DRU_VAL 0.1_SAMENET SMDPIN VIAPASSINGCORE 0.15
$BRD_DRU_VAL 0.1_SAMENET BUILDUPVIA VIAPASSINGCORE 0.15
$BRD_DRU_VAL 0.1_SAMENET SURFACE VIAPASSINGCORE 0.15
$BRD_DRU_VAL 0.1_SAMENET INTERSTITIALNOLANDVIA VIAPASSINGCORE 0.225
$BRD_DRU_VAL 0.1_SAMENET BUILDUPSKIPSTACKVIA VIAPASSINGCORE 0.15
$BRD_DRU_VAL 0.1_SAMENET BUILDUPLANDLESSVIA VIAPASSINGCORE 0.15
$BRD_DRU_VAL 0.1_SAMENET VIAPASSINGCORE VIAPASSINGCORE 0.15
$BRD_DRU_VAL 0.1_SAMENET WIRE VIAINCORE 0.15
$BRD_DRU_VAL 0.1_SAMENET THROUGHHOLEVIA VIAINCORE 0.15
$BRD_DRU_VAL 0.1_SAMENET INTERSTITIALVIA VIAINCORE 0.15
$BRD_DRU_VAL 0.1_SAMENET NOPAD VIAINCORE 0.225
$BRD_DRU_VAL 0.1_SAMENET THROUGHHOLEPIN VIAINCORE 0.15
$BRD_DRU_VAL 0.1_SAMENET SMDPIN VIAINCORE 0.15
$BRD_DRU_VAL 0.1_SAMENET BUILDUPVIA VIAINCORE 0.15
$BRD_DRU_VAL 0.1_SAMENET SURFACE VIAINCORE 0.15
$BRD_DRU_VAL 0.1_SAMENET INTERSTITIALNOLANDVIA VIAINCORE 0.225
$BRD_DRU_VAL 0.1_SAMENET BUILDUPSKIPSTACKVIA VIAINCORE 0.15
$BRD_DRU_VAL 0.1_SAMENET BUILDUPLANDLESSVIA VIAINCORE 0.15
$BRD_DRU_VAL 0.1_SAMENET VIAPASSINGCORE VIAINCORE 0.15
$BRD_DRU_VAL 0.1_SAMENET VIAINCORE VIAINCORE 0.15
$BRD_DRU_VAL 0.1_SAMENET WIRE NOLANDVIAPASSINGCORE 0.225
$BRD_DRU_VAL 0.1_SAMENET THROUGHHOLEVIA NOLANDVIAPASSINGCORE 0.225
$BRD_DRU_VAL 0.1_SAMENET INTERSTITIALVIA NOLANDVIAPASSINGCORE 0.225
$BRD_DRU_VAL 0.1_SAMENET NOPAD NOLANDVIAPASSINGCORE 0.225
$BRD_DRU_VAL 0.1_SAMENET THROUGHHOLEPIN NOLANDVIAPASSINGCORE 0.225
$BRD_DRU_VAL 0.1_SAMENET SMDPIN NOLANDVIAPASSINGCORE 0.225
$BRD_DRU_VAL 0.1_SAMENET BUILDUPVIA NOLANDVIAPASSINGCORE 0.15
$BRD_DRU_VAL 0.1_SAMENET SURFACE NOLANDVIAPASSINGCORE 0.225
$BRD_DRU_VAL 0.1_SAMENET INTERSTITIALNOLANDVIA NOLANDVIAPASSINGCORE 0.225
$BRD_DRU_VAL 0.1_SAMENET BUILDUPSKIPSTACKVIA NOLANDVIAPASSINGCORE 0.15
$BRD_DRU_VAL 0.1_SAMENET BUILDUPLANDLESSVIA NOLANDVIAPASSINGCORE 0.15
$BRD_DRU_VAL 0.1_SAMENET VIAPASSINGCORE NOLANDVIAPASSINGCORE 0.225
$BRD_DRU_VAL 0.1_SAMENET VIAINCORE NOLANDVIAPASSINGCORE 0.225
$BRD_DRU_VAL 0.1_SAMENET NOLANDVIAPASSINGCORE NOLANDVIAPASSINGCORE 0.225
$BRD_DRU_VAL 0.1_SAMENET WIRE NOLANDVIAINCORE 0.225
$BRD_DRU_VAL 0.1_SAMENET THROUGHHOLEVIA NOLANDVIAINCORE 0.225
$BRD_DRU_VAL 0.1_SAMENET INTERSTITIALVIA NOLANDVIAINCORE 0.225
$BRD_DRU_VAL 0.1_SAMENET NOPAD NOLANDVIAINCORE 0.225
$BRD_DRU_VAL 0.1_SAMENET THROUGHHOLEPIN NOLANDVIAINCORE 0.225
$BRD_DRU_VAL 0.1_SAMENET SMDPIN NOLANDVIAINCORE 0.225
$BRD_DRU_VAL 0.1_SAMENET BUILDUPVIA NOLANDVIAINCORE 0.15
$BRD_DRU_VAL 0.1_SAMENET SURFACE NOLANDVIAINCORE 0.225
$BRD_DRU_VAL 0.1_SAMENET INTERSTITIALNOLANDVIA NOLANDVIAINCORE 0.225
$BRD_DRU_VAL 0.1_SAMENET BUILDUPSKIPSTACKVIA NOLANDVIAINCORE 0.15
$BRD_DRU_VAL 0.1_SAMENET BUILDUPLANDLESSVIA NOLANDVIAINCORE 0.15
$BRD_DRU_VAL 0.1_SAMENET VIAPASSINGCORE NOLANDVIAINCORE 0.225
$BRD_DRU_VAL 0.1_SAMENET VIAINCORE NOLANDVIAINCORE 0.225
$BRD_DRU_VAL 0.1_SAMENET NOLANDVIAPASSINGCORE NOLANDVIAINCORE 0.225
$BRD_DRU_VAL 0.1_SAMENET NOLANDVIAINCORE NOLANDVIAINCORE 0.225
$BRD_DRU_VAL 0.15_SAMENET WIRE WIRE 0.15
$BRD_DRU_VAL 0.15_SAMENET WIRE THROUGHHOLEVIA 0.15
$BRD_DRU_VAL 0.15_SAMENET WIRE INTERSTITIALVIA 0.15
$BRD_DRU_VAL 0.15_SAMENET WIRE NOPAD 0.3
$BRD_DRU_VAL 0.15_SAMENET WIRE THROUGHHOLEPIN 0.1
$BRD_DRU_VAL 0.15_SAMENET WIRE SMDPIN 0.1
$BRD_DRU_VAL 0.15_SAMENET THROUGHHOLEVIA THROUGHHOLEVIA 0.15
$BRD_DRU_VAL 0.15_SAMENET THROUGHHOLEVIA INTERSTITIALVIA 0.15
$BRD_DRU_VAL 0.15_SAMENET THROUGHHOLEVIA NOPAD 0.3
$BRD_DRU_VAL 0.15_SAMENET THROUGHHOLEPIN THROUGHHOLEVIA 0.15
$BRD_DRU_VAL 0.15_SAMENET SMDPIN THROUGHHOLEVIA 0.15
$BRD_DRU_VAL 0.15_SAMENET INTERSTITIALVIA INTERSTITIALVIA 0.15
$BRD_DRU_VAL 0.15_SAMENET INTERSTITIALVIA NOPAD 0.3
$BRD_DRU_VAL 0.15_SAMENET THROUGHHOLEPIN INTERSTITIALVIA 0.15
$BRD_DRU_VAL 0.15_SAMENET SMDPIN INTERSTITIALVIA 0.15
$BRD_DRU_VAL 0.15_SAMENET NOPAD NOPAD 0.3
$BRD_DRU_VAL 0.15_SAMENET THROUGHHOLEPIN NOPAD 0.3
$BRD_DRU_VAL 0.15_SAMENET SMDPIN NOPAD 0.3
$BRD_DRU_VAL 0.15_SAMENET THROUGHHOLEPIN THROUGHHOLEPIN 0.15
$BRD_DRU_VAL 0.15_SAMENET THROUGHHOLEPIN SMDPIN 0.1
$BRD_DRU_VAL 0.15_SAMENET SMDPIN SMDPIN 0.15
$BRD_DRU_VAL 0.15_SAMENET SMDPIN INNERCOMP 0.15
$BRD_DRU_VAL 0.15_SAMENET THROUGHHOLEPIN INNERCOMP 0.15
$BRD_DRU_VAL 0.15_SAMENET SMDPIN TURN 0
$BRD_DRU_VAL 0.15_SAMENET THROUGHHOLEPIN TURN 0
$BRD_DRU_VAL 0.15_SAMENET WIRE BUILDUPVIA 0.15
$BRD_DRU_VAL 0.15_SAMENET THROUGHHOLEVIA BUILDUPVIA 0.15
$BRD_DRU_VAL 0.15_SAMENET INTERSTITIALVIA BUILDUPVIA 0.15
$BRD_DRU_VAL 0.15_SAMENET NOPAD BUILDUPVIA 0.15
$BRD_DRU_VAL 0.15_SAMENET THROUGHHOLEPIN BUILDUPVIA 0.15
$BRD_DRU_VAL 0.15_SAMENET SMDPIN BUILDUPVIA 0.15
$BRD_DRU_VAL 0.15_SAMENET BUILDUPVIA BUILDUPVIA 0.15
$BRD_DRU_VAL 0.15_SAMENET WIRE SURFACE 0.15
$BRD_DRU_VAL 0.15_SAMENET SURFACE THROUGHHOLEVIA 0.15
$BRD_DRU_VAL 0.15_SAMENET SURFACE INTERSTITIALVIA 0.15
$BRD_DRU_VAL 0.15_SAMENET SURFACE NOPAD 0.3
$BRD_DRU_VAL 0.15_SAMENET SURFACE THROUGHHOLEPIN 0.15
$BRD_DRU_VAL 0.15_SAMENET SURFACE SMDPIN 0.15
$BRD_DRU_VAL 0.15_SAMENET SURFACE BUILDUPVIA 0.15
$BRD_DRU_VAL 0.15_SAMENET SURFACE SURFACE 0.15
$BRD_DRU_VAL 0.15_SAMENET WIRE INTERSTITIALNOLANDVIA 0.3
$BRD_DRU_VAL 0.15_SAMENET THROUGHHOLEVIA INTERSTITIALNOLANDVIA 0.3
$BRD_DRU_VAL 0.15_SAMENET INTERSTITIALVIA INTERSTITIALNOLANDVIA 0.3
$BRD_DRU_VAL 0.15_SAMENET NOPAD INTERSTITIALNOLANDVIA 0.3
$BRD_DRU_VAL 0.15_SAMENET THROUGHHOLEPIN INTERSTITIALNOLANDVIA 0.3
$BRD_DRU_VAL 0.15_SAMENET SMDPIN INTERSTITIALNOLANDVIA 0.3
$BRD_DRU_VAL 0.15_SAMENET INTERSTITIALNOLANDVIA BUILDUPVIA 0.15
$BRD_DRU_VAL 0.15_SAMENET SURFACE INTERSTITIALNOLANDVIA 0.3
$BRD_DRU_VAL 0.15_SAMENET INTERSTITIALNOLANDVIA INTERSTITIALNOLANDVIA 0.3
$BRD_DRU_VAL 0.15_SAMENET WIRE BUILDUPSKIPSTACKVIA 0.15
$BRD_DRU_VAL 0.15_SAMENET THROUGHHOLEVIA BUILDUPSKIPSTACKVIA 0.15
$BRD_DRU_VAL 0.15_SAMENET INTERSTITIALVIA BUILDUPSKIPSTACKVIA 0.15
$BRD_DRU_VAL 0.15_SAMENET NOPAD BUILDUPSKIPSTACKVIA 0.15
$BRD_DRU_VAL 0.15_SAMENET THROUGHHOLEPIN BUILDUPSKIPSTACKVIA 0.15
$BRD_DRU_VAL 0.15_SAMENET SMDPIN BUILDUPSKIPSTACKVIA 0.15
$BRD_DRU_VAL 0.15_SAMENET BUILDUPVIA BUILDUPSKIPSTACKVIA 0.15
$BRD_DRU_VAL 0.15_SAMENET SURFACE BUILDUPSKIPSTACKVIA 0.15
$BRD_DRU_VAL 0.15_SAMENET INTERSTITIALNOLANDVIA BUILDUPSKIPSTACKVIA 0.15
$BRD_DRU_VAL 0.15_SAMENET BUILDUPSKIPSTACKVIA BUILDUPSKIPSTACKVIA 0.15
$BRD_DRU_VAL 0.15_SAMENET WIRE BUILDUPLANDLESSVIA 0.15
$BRD_DRU_VAL 0.15_SAMENET THROUGHHOLEVIA BUILDUPLANDLESSVIA 0.15
$BRD_DRU_VAL 0.15_SAMENET INTERSTITIALVIA BUILDUPLANDLESSVIA 0.15
$BRD_DRU_VAL 0.15_SAMENET NOPAD BUILDUPLANDLESSVIA 0.15
$BRD_DRU_VAL 0.15_SAMENET THROUGHHOLEPIN BUILDUPLANDLESSVIA 0.15
$BRD_DRU_VAL 0.15_SAMENET SMDPIN BUILDUPLANDLESSVIA 0.15
$BRD_DRU_VAL 0.15_SAMENET BUILDUPVIA BUILDUPLANDLESSVIA 0.15
$BRD_DRU_VAL 0.15_SAMENET SURFACE BUILDUPLANDLESSVIA 0.15
$BRD_DRU_VAL 0.15_SAMENET INTERSTITIALNOLANDVIA BUILDUPLANDLESSVIA 0.15
$BRD_DRU_VAL 0.15_SAMENET BUILDUPSKIPSTACKVIA BUILDUPLANDLESSVIA 0.15
$BRD_DRU_VAL 0.15_SAMENET BUILDUPLANDLESSVIA BUILDUPLANDLESSVIA 0.15
$BRD_DRU_VAL 0.15_SAMENET WIRE VIAPASSINGCORE 0.15
$BRD_DRU_VAL 0.15_SAMENET THROUGHHOLEVIA VIAPASSINGCORE 0.15
$BRD_DRU_VAL 0.15_SAMENET INTERSTITIALVIA VIAPASSINGCORE 0.15
$BRD_DRU_VAL 0.15_SAMENET NOPAD VIAPASSINGCORE 0.3
$BRD_DRU_VAL 0.15_SAMENET THROUGHHOLEPIN VIAPASSINGCORE 0.15
$BRD_DRU_VAL 0.15_SAMENET SMDPIN VIAPASSINGCORE 0.15
$BRD_DRU_VAL 0.15_SAMENET BUILDUPVIA VIAPASSINGCORE 0.15
$BRD_DRU_VAL 0.15_SAMENET SURFACE VIAPASSINGCORE 0.15
$BRD_DRU_VAL 0.15_SAMENET INTERSTITIALNOLANDVIA VIAPASSINGCORE 0.3
$BRD_DRU_VAL 0.15_SAMENET BUILDUPSKIPSTACKVIA VIAPASSINGCORE 0.15
$BRD_DRU_VAL 0.15_SAMENET BUILDUPLANDLESSVIA VIAPASSINGCORE 0.15
$BRD_DRU_VAL 0.15_SAMENET VIAPASSINGCORE VIAPASSINGCORE 0.15
$BRD_DRU_VAL 0.15_SAMENET WIRE VIAINCORE 0.15
$BRD_DRU_VAL 0.15_SAMENET THROUGHHOLEVIA VIAINCORE 0.15
$BRD_DRU_VAL 0.15_SAMENET INTERSTITIALVIA VIAINCORE 0.15
$BRD_DRU_VAL 0.15_SAMENET NOPAD VIAINCORE 0.3
$BRD_DRU_VAL 0.15_SAMENET THROUGHHOLEPIN VIAINCORE 0.15
$BRD_DRU_VAL 0.15_SAMENET SMDPIN VIAINCORE 0.15
$BRD_DRU_VAL 0.15_SAMENET BUILDUPVIA VIAINCORE 0.15
$BRD_DRU_VAL 0.15_SAMENET SURFACE VIAINCORE 0.15
$BRD_DRU_VAL 0.15_SAMENET INTERSTITIALNOLANDVIA VIAINCORE 0.3
$BRD_DRU_VAL 0.15_SAMENET BUILDUPSKIPSTACKVIA VIAINCORE 0.15
$BRD_DRU_VAL 0.15_SAMENET BUILDUPLANDLESSVIA VIAINCORE 0.15
$BRD_DRU_VAL 0.15_SAMENET VIAPASSINGCORE VIAINCORE 0.15
$BRD_DRU_VAL 0.15_SAMENET VIAINCORE VIAINCORE 0.15
$BRD_DRU_VAL 0.15_SAMENET WIRE NOLANDVIAPASSINGCORE 0.3
$BRD_DRU_VAL 0.15_SAMENET THROUGHHOLEVIA NOLANDVIAPASSINGCORE 0.3
$BRD_DRU_VAL 0.15_SAMENET INTERSTITIALVIA NOLANDVIAPASSINGCORE 0.3
$BRD_DRU_VAL 0.15_SAMENET NOPAD NOLANDVIAPASSINGCORE 0.3
$BRD_DRU_VAL 0.15_SAMENET THROUGHHOLEPIN NOLANDVIAPASSINGCORE 0.3
$BRD_DRU_VAL 0.15_SAMENET SMDPIN NOLANDVIAPASSINGCORE 0.3
$BRD_DRU_VAL 0.15_SAMENET BUILDUPVIA NOLANDVIAPASSINGCORE 0.15
$BRD_DRU_VAL 0.15_SAMENET SURFACE NOLANDVIAPASSINGCORE 0.3
$BRD_DRU_VAL 0.15_SAMENET INTERSTITIALNOLANDVIA NOLANDVIAPASSINGCORE 0.3
$BRD_DRU_VAL 0.15_SAMENET BUILDUPSKIPSTACKVIA NOLANDVIAPASSINGCORE 0.15
$BRD_DRU_VAL 0.15_SAMENET BUILDUPLANDLESSVIA NOLANDVIAPASSINGCORE 0.15
$BRD_DRU_VAL 0.15_SAMENET VIAPASSINGCORE NOLANDVIAPASSINGCORE 0.3
$BRD_DRU_VAL 0.15_SAMENET VIAINCORE NOLANDVIAPASSINGCORE 0.3
$BRD_DRU_VAL 0.15_SAMENET NOLANDVIAPASSINGCORE NOLANDVIAPASSINGCORE 0.3
$BRD_DRU_VAL 0.15_SAMENET WIRE NOLANDVIAINCORE 0.3
$BRD_DRU_VAL 0.15_SAMENET THROUGHHOLEVIA NOLANDVIAINCORE 0.3